c File: instances/38_0.25_1.col
c
c Description: Random graph of size 38 vertices and P(0.25) of edges between any two vertices.
p col 38 703
e 1 2
e 1 8
e 1 13
e 1 14
e 1 15
e 1 16
e 1 21
e 1 25
e 1 27
e 1 28
e 1 30
e 1 33
e 2 4
e 2 7
e 2 10
e 2 12
e 2 13
e 2 18
e 2 22
e 2 23
e 2 27
e 3 6
e 3 7
e 3 11
e 3 14
e 3 22
e 3 23
e 3 30
e 3 31
e 4 13
e 4 16
e 4 18
e 4 22
e 4 24
e 4 27
e 4 33
e 4 36
e 4 37
e 5 9
e 5 12
e 5 17
e 5 18
e 5 19
e 5 22
e 5 23
e 5 25
e 5 26
e 5 30
e 5 34
e 5 35
e 6 7
e 6 8
e 6 13
e 6 18
e 6 19
e 6 21
e 6 23
e 6 34
e 7 12
e 7 19
e 7 21
e 7 24
e 7 27
e 7 28
e 7 31
e 7 33
e 7 37
e 8 10
e 8 16
e 8 18
e 8 22
e 8 24
e 8 31
e 8 35
e 9 12
e 9 16
e 9 17
e 9 25
e 9 27
e 9 29
e 9 31
e 9 36
e 10 17
e 10 20
e 10 22
e 10 23
e 10 30
e 10 33
e 10 37
e 11 18
e 11 19
e 11 22
e 11 24
e 11 27
e 11 29
e 11 31
e 11 32
e 11 35
e 12 15
e 12 18
e 12 20
e 12 31
e 12 33
e 12 35
e 13 15
e 13 19
e 13 21
e 13 23
e 13 24
e 13 34
e 14 16
e 14 17
e 14 18
e 14 20
e 14 22
e 14 27
e 14 29
e 14 32
e 14 38
e 15 16
e 15 17
e 15 18
e 15 20
e 15 25
e 15 26
e 15 27
e 15 31
e 15 38
e 16 21
e 16 23
e 16 26
e 16 27
e 16 32
e 17 24
e 17 30
e 17 34
e 17 38
e 18 19
e 18 23
e 18 38
e 19 28
e 19 29
e 19 30
e 19 31
e 19 32
e 20 21
e 20 27
e 20 31
e 20 34
e 20 36
e 20 37
e 20 38
e 21 22
e 22 29
e 22 32
e 22 37
e 22 38
e 23 27
e 23 28
e 23 36
e 23 37
e 24 27
e 24 32
e 24 34
e 24 35
e 24 37
e 24 38
e 25 27
e 25 28
e 25 34
e 25 38
e 26 27
e 26 28
e 26 34
e 26 36
e 27 29
e 27 34
e 27 36
e 27 37
e 27 38
e 28 32
e 28 34
e 30 31
e 30 38
e 31 32
e 31 35
e 32 34
e 32 35
e 32 36
e 32 37
e 33 34
e 33 35
e 34 35
e 34 36
e 35 38